c --- [ banner ] -------------------------------------------------------------
c 
c CaDiCaL SAT Solver
c Copyright (c) 2016-2023 A. Biere, M. Fleury, N. Froleyks, K. Fazekas, F. Pollitt
c 
c Version 1.9.5
c g++ (Ubuntu 11.4.0-1ubuntu1~22.04) 11.4.0 -Wall -Wextra -O3 -DNDEBUG -static
c Thu Mar 7 06:16:21 CET 2024 Linux pc101447 6.5.0-17-generic x86_64
c 
c --- [ limit ] --------------------------------------------------------------
c 
c setting time limit to 3600 seconds real time (due to '-t 3600')
c 
c --- [ parsing input ] ------------------------------------------------------
c 
c reading DIMACS file from '/home/oliveras/SAT-comp-2023//28f29fe949422ec88892e18073de065c-5col100_15_6.shuffled.cnf'
c opening file to read '/home/oliveras/SAT-comp-2023//28f29fe949422ec88892e18073de065c-5col100_15_6.shuffled.cnf'
c found 'p cnf 300 4059' header
c parsed 4059 clauses in 0.01 seconds process time
c 
c --- [ options ] ------------------------------------------------------------
c 
c   --seed=1                       (different from default '0')
c 
c --- [ solving ] ------------------------------------------------------------
c 
c time measured in process time since initialization
c 
c  seconds  reductions  redundant irredundant
c         MB    restarts       trail    variables
c          level   conflicts       glue     remaining
c 
c *  0.01  1  0 0   0    0    0  0% 0 3973 291 97%
c {  0.01  1  0 0   0    0    0  0% 0 3973 291 97%
c -  0.01  2 56 1   1  300  204 44% 4 3834 291 97%
c -  0.02  2 46 2  53  901  717 42% 5 3818 291 97%
c }  0.02  2 45 2  58 1000  810 42% 5 3818 291 97%
c [  0.02  2  0 2  58 1000  810  0% 0 3818 291 97%
c O  0.02  2 28 2  58 1005  811 23% 5 3816 291 97%
c -  0.04  2 27 3  58 1801 1359 47% 6 3785 291 97%
c ]  0.06  2 20 3  59 3000 2392 45% 7 3784 291 97%
c {  0.06  2 45 3  59 3000 2392 42% 5 3784 291 97%
c -  0.06  2 45 4  59 3001 1982 42% 5 3784 291 97%
c F  0.06  2 45 4  59 3005 1986 42% 5 3784 291 97%
c -  0.08  2 34 5 184 4502 2763 41% 5 3781 291 97%
c d  0.09  2 33 5 235 5000 3232 41% 5 3753 290 97%
c 3  0.09  2 33 5 235 5000 3297 41% 5 3726 290 97%
c d  0.09  2 33 5 235 5000 3301 41% 5 3698 289 96%
c 2  0.09  2 33 5 235 5000 3300 41% 5 3698 289 96%
c p  0.09  2 33 5 235 5000 3300 41% 5 3698 289 96%
c #  0.11  2 31 5 372 6008 4254 41% 5 3698 289 96%
c -  0.11  2 30 6 415 6303 3743 41% 5 3698 289 96%
c 
c  seconds  reductions  redundant irredundant
c         MB    restarts       trail    variables
c          level   conflicts       glue     remaining
c 
c }  0.12  2 29 6 515 7001 4401 41% 5 3698 289 96%
c [  0.12  2 20 6 515 7001 4401 45% 7 3698 289 96%
c s  0.14  2 20 6 516 7544 4642 46% 7 3347 289 96%
c v  0.15  3 20 6 516 7544 4642 46% 7 3254 289 96%
c w  0.15  3 20 6 516 7544 4626 46% 7 3254 289 96%
c t  0.15  3 20 6 516 7544 4603 46% 7 3247 289 96%
c e  0.17  3 20 6 516 7544 3739 46% 7 3216 278 93%
c s  0.18  3 20 6 516 7544 3342 46% 7 3216 278 93%
c -  0.21  3 19 7 516 8403 3529 47% 8 3216 278 93%
c I  0.25  3 18 7 517 10009 4912 48% 8 3216 278 93%
c -  0.27  3 17 8 518 10804 4545 49% 8 3216 278 93%
c -  0.36  3 16 9 520 13504 5198 49% 9 3216 278 93%
c ]  0.41  3 15 9 520 15001 6372 50% 9 3216 278 93%
c {  0.41  3 29 9 520 15001 6372 41% 5 3216 278 93%
c 2  0.41  3 29 9 520 15001 6287 41% 5 3216 278 93%
c p  0.41  3 29 9 520 15001 6287 41% 5 3216 278 93%
c B  0.41  3 29 9 522 15012 6298 41% 5 3216 278 93%
c -  0.47  3 26 10 912 16504 6094 43% 6 3216 278 93%
c -  0.61  3 22 11 1732 19804 7410 45% 7 3216 278 93%
c W  0.66  3 21 11 2013 21013 8469 45% 7 3216 278 93%
c 
c  seconds  reductions     redundant irredundant
c         MB     restarts         trail    variables
c          level      conflicts       glue     remaining
c 
c s  0.70  3 21 11 2122 21673 8887 45% 7 3216 278 93%
c v  0.70  3 21 11 2122 21673 8887 45% 7 3216 278 93%
c w  0.71  3 21 11 2122 21673 8879 45% 7 3216 278 93%
c t  0.71  3 21 11 2122 21673 8876 45% 7 3216 278 93%
c s  0.72  3 21 11 2122 21673 8845 45% 7 3216 278 93%
c ^  0.72  3 21 11 2122 21673 8845 45% 7 3216 278 93%
c -  0.79  4 20 12 2484 23404 8224 46% 8 3216 278 93%
c -  0.92  4 18 13 2744 27304 9115 47% 8 3216 278 93%
c F  0.94  4 18 13 2828 28015 9668 47% 8 3216 278 93%
c p  1.01  4 17 13 2917 30001 11248 47% 8 3216 278 93%
c }  1.04  4 16 13 2918 31001 11883 47% 8 3216 278 93%
c [  1.04  4 15 13 2918 31001 11883 50% 9 3216 278 93%
c -  1.06  4 15 14 2918 31504 9868 50% 9 3216 278 93%
c -  1.22  4 13 15 2921 36004 10341 50% 8 3216 278 93%
c B  1.22  4 13 15 2921 36016 10350 50% 8 3216 278 93%
c -  1.41  4 13 16 2924 40805 11928 50% 8 3216 278 93%
c s  1.50  4 13 16 2925 42867 13534 49% 8 3216 278 93%
c v  1.51  4 13 16 2925 42867 13534 49% 8 3216 278 93%
c s  1.53  4 13 16 2925 42867 13503 49% 8 3216 278 93%
c ^  1.53  4 13 16 2925 42867 13503 49% 8 3216 278 93%
c 
c  seconds  reductions      redundant irredundant
c         MB     restarts          trail    variables
c          level      conflicts        glue     remaining
c 
c W  1.63  4 13 16 2925 45017 15138 49% 8 3216 278 93%
c -  1.67  4 13 17 2925 45905 12076 49% 8 3216 278 93%
c -  1.89  4 12 18 2926 51305 12587 49% 8 3216 278 93%
c O  2.04  4 12 18 2927 55021 15234 49% 8 3216 278 93%
c -  2.12  4 12 19 2929 57005 13349 49% 8 3216 278 93%
c ]  2.38  4 12 19 2933 63004 17874 49% 8 3216 278 93%
c {  2.38  4 16 19 2933 63004 17874 47% 8 3216 278 93%
c -  2.38  5 16 20 2933 63006 14376 47% 8 3216 278 93%
c B  2.53  5 16 20 3266 66022 16674 47% 8 3216 278 93%
c -  2.68  5 15 21 3347 69306 14796 47% 8 3216 278 93%
c s  2.79  5 14 21 3437 71124 15702 47% 8 3216 278 93%
c w  2.80  5 14 21 3437 71124 15694 47% 8 3216 278 93%
c s  2.84  5 14 21 3437 71124 15643 47% 8 3216 278 93%
c ^  2.84  5 14 21 3437 71124 15643 47% 8 3216 278 93%
c -  3.06  5 13 22 3592 75906 15272 47% 7 3216 278 93%
c W  3.16  5 13 22 3642 78025 16640 47% 7 3216 278 93%
c -  3.39  6 12 23 3871 82808 16179 47% 7 3216 278 93%
c -  3.71  6 12 24 4041 90009 16738 47% 7 3216 278 93%
c #  3.75  6 12 24 4048 91027 17377 47% 7 3216 278 93%
c -  4.07  6 11 25 4390 97511 17947 47% 7 3216 278 93%
c 
c  seconds  reductions       redundant irredundant
c         MB     restarts           trail    variables
c          level      conflicts         glue     remaining
c 
c 3  4.42  6 11 25 4748 105002 22665 47% 7 3216 278 93%
c B  4.43  6 11 25 4748 105029 22690 47% 7 3216 278 93%
c -  4.45  7 11 26 4797 105311 18799 47% 7 3216 278 93%
c s  4.54  7 11 26 4813 106446 18834 47% 7 3216 278 93%
c w  4.55  7 11 26 4813 106446 18827 47% 7 3216 278 93%
c s  4.59  7 11 26 4813 106446 18759 47% 7 3216 278 93%
c ^  4.59  7 11 26 4813 106446 18759 47% 7 3216 278 93%
c i  4.79  7 10 26 4852 110737 20936 47% 7 3216 277 92%
c -  4.94  5 10 27 4988 113411 17261 47% 7 3199 277 92%
c i  5.07  5 10 27 5112 116192 18836 47% 7 3199 276 92%
c i  5.23  5 10 27 5212 119427 20779 47% 7 3199 275 92%
c W  5.29  6 10 27 5272 120030 16177 47% 7 3154 275 92%
c i  5.35  6 10 27 5293 121677 17105 47% 7 3154 274 91%
c -  5.37  6 10 28 5316 121812 13488 47% 7 3139 274 91%
c i  5.51  6 10 28 5398 125126 15410 47% 7 3139 273 91%
c i  5.54  6 10 28 5411 125894 15825 47% 7 3139 272 91%
c i  5.55  6 10 28 5411 126023 15876 47% 7 3139 271 90%
c i  5.58  6 10 28 5411 126591 16193 47% 7 3139 270 90%
c }  5.60  6 10 28 5424 127006 16470 47% 7 3139 270 90%
c [  5.60  6 12 28 5424 127006 16470 49% 8 3139 270 90%
c 
c  seconds  reductions       redundant irredundant
c         MB     restarts           trail    variables
c          level      conflicts         glue     remaining
c 
c i  5.61  6 12 28 5424 127132 16514 49% 8 3139 268 89%
c i  5.64  6 12 28 5424 127687 16810 49% 8 3139 262 87%
c i  5.65  6 12 28 5424 127868 16879 49% 8 3139 258 86%
c i  5.65  6 12 28 5424 127948 16906 49% 8 3139 223 74%
c i  5.65  6 12 28 5424 127949 16906 49% 8 3139 222 74%
c ]  5.65  6 12 28 5424 127953 16908 49% 8 3139 197 66%
c 0  5.65  6 12 28 5424 127953 16908 49% 8 3139 197 66%
c 
c --- [ result ] -------------------------------------------------------------
c 
s UNSATISFIABLE
c 
c --- [ run-time profiling ] -------------------------------------------------
c 
c process time taken by individual solving procedures
c (percentage relative to process time for solving)
c 
c         5.33   94.45% search
c         3.67   65.11% unstable
c         1.59   28.22% stable
c         0.31    5.55% simplify
c         0.18    3.19% subsume
c         0.06    1.11% walk
c         0.06    1.10% vivify
c         0.04    0.75% elim
c         0.01    0.17% probe
c         0.01    0.14% ternary
c         0.01    0.10% parse
c         0.00    0.00% lucky
c   =================================
c         5.64   99.89% solve
c 
c last line shows process time for solving
c (percentage relative to total process time)
c 
c --- [ statistics ] ---------------------------------------------------------
c 
c chronological:             16879        13.19 %  of conflicts
c conflicts:                127953     22671.03    per second
c decisions:                190489     33751.31    per second
c eliminated:                   11         3.67 %  of all variables
c fixed:                        90        30.00 %  of all variables
c learned:                  125676        98.22 %  per conflict
c learned_lits:            2684647       100.00 %  learned literals
c minimized:                     0         0.00 %  learned literals
c shrunken:                 862547        32.13 %  learned literals
c minishrunken:             235062         8.76 %  learned literals
c otfs:                        743         0.58 %  of conflict
c propagations:            6031233         1.07 M  per second
c reduced:                   62347        48.73 %  per conflict
c rephased:                     15      8530.20    interval
c restarts:                   5424        23.59    interval
c stabilizing:                   4        33.54 %  of conflicts
c substituted:                   2         0.67 %  of all variables
c subsumed:                  37544        28.09 %  of all clauses
c strengthened:              13823        10.34 %  of all clauses
c ternary:                     154         1.45 %  of resolved
c trail reuses:                  0         0.00 %  of incremental calls
c vivified:                   2108         1.58 %  of all clauses
c walked:                        4     31988.25    interval
c weakened:                     35         2.26    average size
c 
c seconds are measured in process time for solving
c 
c --- [ resources ] ----------------------------------------------------------
c 
c total process time since initialization:         5.65    seconds
c total real time since initialization:            5.65    seconds
c maximum resident set size of process:            7.59    MB
c 
c --- [ shutting down ] ------------------------------------------------------
c 
c exit 20
